
 102   30
  10   10   10   10   10   10   10   10   10   10   10   10   10   10   10   10   10   10   10   10   10   10   10   10   10   10   10   10   10   10

   0   0   0   0   0   0   0   0   0   0   0   0   0   0   0   0   0   0   0   0   0   0   0   0   0   0   0   0   0   0   0  25 2 3 4 5 6 8 9 10 11 12 13 14 15 16 17 21 22 23 24 25 27 28 31 34 37 
  10   0   0   1   0   0   0   1   0   0   0   0   0   0   0   0   0   0   0   0   0   0   0   0   0   0   0   0   0   0   1  10 101 75 56 54 42 36 33 26 18 7 
   2   0   1   0   0   0   0   0   0   0   0   0   0   0   0   0   0   0   0   0   0   0   0   0   1   0   0   1   0   0   0  22 101 98 75 74 73 72 70 68 63 60 59 58 57 55 54 52 50 48 47 39 38 36 
   6   0   0   5   0   0   1   0   0   0   0   0   0   0   0   0   0   0   0   0   0   2   0   0   4   3   0  10   0   0   0  12 101 100 74 70 60 59 50 46 42 38 26 20 
   1   0   0   0   0   1   0   0   0   0   2   0   1   0   1   0   0   0   0   0   0   5   0   1   0   0   0   0   0   0   0  11 101 75 74 69 62 57 53 49 46 35 20 
   1   0   0   0   1   0   0   0   0   0   0   0   0   1   0   0   1   0   0   0   0   0   0   4   0   6   0   0   0   0   0  13 98 75 71 62 57 53 52 51 46 45 44 40 35 
   2   0   0   0   0   0   0   0   0   0   0   1   0   9   2   0   0   0   0   0   0   0   0   7  10  10   0   0   0   0  10  12 100 98 70 69 63 62 58 57 53 46 43 20 
   2   0   0   0   0   0   4   0   0   0   0   8   0   0   0   0   0   0   0   1   0   0   0   0   0   0   0   0   1   1   8  16 99 73 72 70 68 63 60 57 54 53 52 49 46 45 42 33 
   4   0   0   0   0   0   4   0   3   0   0   0   0   0   0   0   0   0   0   0   0   0   0   0   0   0   0   0   0   0   0  12 100 74 73 68 61 60 55 52 46 44 43 30 
   8   0   0   0   0   0   0   0   0   0   0   0   0   0   0   0   0   0   0   0   0   0   0   0   0   0   0   0   0   0   0  18 99 98 96 74 72 71 70 69 68 65 63 62 60 55 46 45 42 41 
   4   0   0   0   0   0   0   0   0   0   5   0   6   0   7   0   0   0   0   0   2   0   0   6   8   0   0   0   0   7   0   9 99 98 73 68 62 60 52 41 19 
  10   0   0   0   8   0   0   0   0   0   0   0   0   0   0   0   0   2   0   0   0   0   0   0   0   0   0   0   0   0   0  20 101 98 97 96 94 75 74 73 72 71 70 69 68 67 63 61 57 53 43 42 
   4   0   0   0   6   0   4   0   0   1   7   0   0   0   0   0   0   0   0   0   0   0   0   0   0   0   0   5   0   0   0  11 101 99 98 93 72 70 65 60 53 36 29 
   4   0   0   0   0   0   0   0   5   0   0   6   0   0   0   0   0   0   0   0   0   3   0   0   0   0   0   0   0   0   4  18 101 100 99 96 95 93 92 88 75 72 70 68 67 66 65 63 50 38 
   4   0   0   7   0   0   6   0   6   0   0   0   0   0   0   0   0   0   0   0   0   9   0   0   0   0   0   0   0   0   0  11 96 75 74 73 67 64 62 53 50 49 32 
   9   0   0   0   0   0   0   0   0   0   0   9   0   0   0   0   3   0   0   0   8   0   0   0   0   7   0   0   0   0   0  18 98 97 96 94 92 85 75 72 70 68 67 64 63 62 58 48 45 43 
   4   0   0   0   0   0   0   0   0   0   0   0   0   0   0   0   0   0   0   0   0   0   0   0   5   0   1   0   0   0   0  19 101 100 99 95 94 92 85 74 73 72 70 69 68 67 65 64 53 52 49 
   3   0   0   0   0   0   0   0   0   0   0   0   0   0   0   0   0   0   0   0   4   0   0   2   0   5   0   0   0   0   0  12 99 98 93 70 67 66 65 63 53 46 45 38 
   4   0   0   0   4   0   9   0   0   0   0   0   0   6   0   0   0   0   0   0   0   0   0   0   0   0   0   0   3   0   0  12 101 97 96 95 93 90 70 66 65 46 45 38 
   6   0   8   0   0   0   0   0   0   0   0   0   6   0   0   0   2   0   1   0   0   0   1   0   0   0   0   0   0   0   0   7 99 93 72 71 67 65 29 
   5   1   0   0   0   0   0   0   0   6   0   0   0   0   9   0   4   0   0   0   5   0   5   0   0   0   0   0   0   0   0  20 99 98 96 95 93 92 87 85 84 80 74 73 72 70 66 65 63 61 60 52 
   3   7   0   0   0   0   0   0   0   7   0   0   7   0   0   0   0   0   0   0   6   0   0   0   0   0   6   0   0   0   0  11 97 96 95 93 92 88 72 67 66 65 38 
   6   0   0   0   0   7   0   0   0   0   0   0   0   0   0   0   0   0   0   0   0   0   0   0   0   0   0   0   0   0   0  16 99 94 89 88 87 83 80 68 67 66 65 63 61 59 56 54 
   3   0   0   0   0   6   0   0   0   0   0   0   0   0   0   0   0   0   0   0   5   0   0   0   9   0   0   9   0   8   0  12 100 98 96 94 92 91 86 72 71 64 62 43 
   4   0   7   0   0   0   0   0   4   0   0   0   0   0   0   0   0   0   0   0   6   0   0   0   0   0   0   0   0   0   0  18 99 98 97 96 95 94 93 92 91 87 86 85 83 75 65 64 61 53 
   9   3   0   7   0   0   0   0   5   7   0   0   0   0   0   0   0   0   0   0   0   0   0   7   0   6   0   0   0   0   0  17 98 96 94 93 88 87 85 83 69 68 67 66 65 64 63 61 53 
   4   0   0   0   0   0   0  10   3   0   4   0   8   9   0   2   0   0   0   0   0  10   0   0   4   0   6   5   0   0   0  16 101 98 95 93 91 90 89 87 83 82 74 71 69 65 64 46 
   9   0   5   0   0   0   0   6   0   0   0   8   0   0   0   2   0   0   6   0   0   0   0   5   0   0   0   0   6   0   0  14 97 92 91 90 89 88 86 78 73 65 62 61 58 51 
   9   0   0   9   0   0   0   0   0   0   0   0   0   0   0   0   0   0   8   0  10   0   0   0   0   0   9   0   0   6   0  12 97 96 94 92 89 85 73 68 66 64 52 45 
   1   0   0   0   0   0   0   0   0   5   0   0   0   0   0   0   9   4   5   0   0   7   0   0   0   0   0   0   0   0   0  15 98 96 93 92 89 87 84 78 71 70 69 66 64 62 57 
   7   6   0   0   0   0   0   0   0   0   0   0   0   5   0   0   0   0   0   0   0   0   0   0   0   0   7   0   0   0   0  12 96 94 91 89 88 79 71 69 67 64 62 45 
   9   0   0   0   0   0   0   0   9   0   0   0   0   0   0   0   0   0   0   0   0   0   0   4   0   0   0   0   0   0   0  14 97 95 94 93 92 90 89 88 85 79 68 66 65 45 
   8   0   0   5   0   0   0   0   0   0   0   0   0   0   0   0   4   0   0   7   8   0   0   0   0   0   0   0   0   0   0  16 100 98 97 93 90 89 88 87 85 84 78 77 74 67 65 62 
   2   0   0   0   0   0   0   0  10   8   0   0   4   0   0   0   0   0   0   0   0   0   7   0   0   0   0   0   0   0   5  15 100 97 96 90 89 87 84 80 79 70 69 68 66 65 61 
   1   0   0   0   0   0   0   0   0   0   5   0   0   0   0   0   0   0   0   0   0   0   6   0   0   0   0   0   0   0   7  17 100 99 96 94 92 88 87 86 85 84 83 80 77 76 70 68 65 
   4   6   0   0   0   0   0   0  10   0   0   0   0   7   0   0   0   0   0   6   5   0   0   0   0   0   0   0   9   0   0   8 96 91 89 87 77 66 62 46 
   2   0   0   0   0   0   0   0   0   0   0   0   0   0   0  10   9   0   0   0   0   0   4   0   0   0   0   0   0   0   0  17 98 95 92 91 88 85 84 83 81 80 79 78 77 74 69 67 64 
   2   0   0   0   0  10   0   0   0   4   0   0   0   0   0   0   0   0   3   0   0  10   0   0   0  10   0  10   0   0   0  15 94 91 89 87 86 84 83 81 80 79 78 71 69 64 61 
   3   0   0   0   0   0   0   0   0   0   4   0   0   0   0   0  10   0   0   0   0   6   0   0   0   0   0   0   0   0   0   9 96 94 92 82 77 71 65 64 53 
   6   0   0   0   0  10   0   0   0   0   0   0   6   3   0   0   0   0   0   5   0   0   0   0   0   0   0   5   0   0   0  15 99 97 95 93 92 89 87 86 85 80 79 77 76 73 65 
   1   0   0   0   0   0   0   0   0   6   0   0   0   0   0   0   0   0   5   7   0   0   0   0   0   0   0   0   0   0   0  13 100 97 94 93 92 90 85 84 83 82 78 66 64 
   7   0   0   0   0   0   0   0   0   6   0   0   0   0   0   0   6   0   0   0   0   0   0   0   0   0   0   0   0   0   0  12 95 92 91 89 88 87 82 80 79 77 66 64 
   5   0   0   8   4   0   0   0   4   0   0   0   0   4   0   0   0   0   0   0   0   3   0   0   0   0   0   0   0   0   0  12 99 93 88 87 84 83 82 79 78 77 66 65 
   6   0   0   0   0   0   0   0   6   0   0   0   0   0   0   0   7   0   0   0   7   0   0   0   0   0   0   0  10   0   0   9 89 88 83 80 78 72 69 67 65 
   7   0   0   0   0   0   0   0   0   0   0   0   0   0   0   0   0   0   0   0   0   0   0   0   0   0   0   0   0   0   0   7 87 84 83 81 80 78 61 
   2   0   0   0   0   0   5   0   0   0  10   0   0   0   0   0   0   0   7   0   0   0   0   0   8   5   0   0   0   0   0   9 94 92 88 86 85 80 79 78 76 
   4   0   0   0   0   0   0   0   0   0   0   0   0   0   6   0   0   3   0   0   0  10   0   9   0   0   0   0   0   0   0   9 96 90 89 84 82 80 79 78 76 
   2   0   0   0   0   0   0   6   0   0   0   8   0   0   0   0   6   0   0   0   0   0   0   0   0   0   0   0   0   0   0   8 91 87 86 83 78 77 76 65 
   7   6   0   0   0   0   0   0   0   0   0   0   0   0   0   0   0   0   0   4   0   7   6   9   0   0   0   0   0   0   0   8 98 93 91 80 79 78 77 76 
   6   0   0   5   0   0   0   0   0   0   0   0   0   0   0   0   0   0   0   0   0   0   4   0   0   4   0   0   0   8   0   8 94 90 86 85 83 80 78 76 
   3   0   0   0   0   0   8   0   0   0   0   0   5   0   0   0   0   0   0   0   0   5   0   0   0   0   0   0   0  10   0   6 95 84 82 77 66 64 
   7   0   0   4   0   0   0   4   0   0   0   0   0   8   0   0   0   4   0   0   0   7   0   0   0   0   0   4   0   0   0   7 90 88 86 83 82 79 77 
   5   0   0   0   5   0   0   0   0   0   0   0   0   0   0   0   9   0   0   7   0   5   0   0   0   0   0   3   0   0   4   6 90 89 84 80 79 78 
   1   0   0  10   0   0   0   0   0   0   0   0   0   0   0   0   0   0   0   0   0   5   0   0   0   0   0   0   0   0   0   5 91 90 81 79 64 
   4   0   0   0   0   0   0   0   8   0   0   0   9   0   0   4   0   0   0   0   0   0   0   0   0   0   9   0   0   9   0   5 97 93 90 84 79 
   5   0   0   0   6   0   0   0   0  10   0   0   0   0   0   0   0   7   0   0   0   0   0   0   0   0   0   0   0   0   0   4 85 79 78 64 
   9   0   0   0   7   0   0   0   0   0   0   0   0   0   0   0   0   0   0   0   0   0   0   0   0   0   0   0   0   4   0   4 88 79 77 76 
   2   0   0   0   0   0   0   0   0   0   0   0   0   0   0   0   0   0   0   0   0   0   0   0   0   0   0   0   9   0   0   4 87 80 79 77 
  10  10   0   0   0   0   0   0   7   0   9   0   4   0   0   0   0   0   0   7   0   0   0   0   0   0   0   0   0   0   0   4 93 90 84 76 
   7   8   0   6   0   0   0   0   6   0   0   0   5   0   0   0   0   0   0   0   0   0   0   0   0   0   7   0   0   0   0   3 78 77 67 
   1   9   0   0   0   5  10   0   0   0   0   0   0   0   0   0   7   0   0   0   0   0   0   0   7   0   0   0   0   0   0   3 82 77 76 
   7   3   0   0   0   0   0   0   0   0   0   0   0   0   6   0   0   0   0   0   0   0   0   0   0   0   0   0   0   0   0   3 95 83 80 
   1   0   0   0   0   0   0   0   0   0   0   0   0   0   0   0   0   0   7   0   0   3   0   0   0   0   0   0   0   0   0   2 82 77 
   1   0   0   0   0   0   0   8   0   0   0   0   0   7   0   0   0   7   0   0   0   0   0   0   0   0   0   0   0   0   0   1 76 
   2   0   0   0   9   5   0   0   0   0   0   0   0   0   0   0   0   8   0   0   0   0   0   0   0   0   0   0   0   0   0   1 81 
   4   0   0   0   0   0   0   0   3   0   0   0   0   0   0   0   0   0   0   0   0   0   0   0   0   0   0   0   0   0   0   1 81 
   2   0   6   0   9   0   0   0   0   0   0   0   7   7   0   0   0   0   0   0   0   0   0   0   0   0   6   0   0   0   0   1 86 
   6   0   0   0   0   0   0   0   6   0   0   0   0   5   0   7   0   0   0   0   6   0   0   7   0   0   0   7   0   0   0   1 78 
   4   6   0   0   0   0  10   5   0   0   0   0   0   0   0   0   0   0   0   0   0   0   0   0   0   0   0   0   0   0   0   1 76 
   8   0   0   0   0   0   0   0   0   0   0   0   0   0   0   0   0   0   0   0   0   0   0   0   8   0   0   0   0   0   0   1 91 
   9   0   0   0   0   0   0   0   0   0   0   7   0   0   0   0   0   0   9   0   0   0   0   0   0   0   0   0   0   0   8   1 85 
  10   0   0   0   0   0   0   0   0   0   0   0   6   0   0   8   0   0   0   0   0   0   0   0   5   0   0   0   0   3   0   1 77 
   8   0   8   0   0   0   0   0   0   0   0   0   0   0   0   0   0   0   0   0   2   0   0   0   0   0   0   0   0   0   0   1 82 
   7   0   0   0   0   0   0   0   0   6   0   0   0   0   0   0   6   0   0   0   0   0   9   0   4   0   5   0   0   0   0   1 76 
   3   0   0   0   7   0   7   0   0   0   0   7   0   0   0   0   7   0   0   0   0   0   0   0   0   0   0   0   4   0   0   1 82 
   6   0   0   0   0   0   0   0   0   0   0   0   7   0   0   0   0   0   0   0   0   0   0   0   0   0   0   0   0   0   0   1 102
   3   7   0   0   0   0   0   0   0   0   0   0   9   0   0   0   0   0   0   0   0   0   0   0   0   0   6   0   0   0   0   1 102
   6   0   0   0   0   0   0   0   0   0   0   0   5   0   0   0   0   0   0   0   0   0   7   0   0   0   0   0   0   0   0   1 102
   9   0   0   0   0   0   5   0   0   0   0   0   0   0   0   0   0   0   0   0   0   0   0   0   0   0   0   0   0   0   0   1 102
   5   7   0   0   0   0   0   9   0   0   0   0   6   9   0   0   0   7   0   0   0   0   0   0   0   0   0   0   5   0   0   1 102
   8   0   0   0   0   0   0   0   0   0   0   0   0   0   0   0   0   0   0   0   0   0   7   0   0   0   0   3   0   0   6   1 102
   7   0   0   0   0   5   0   0   0   0   0   0   0   0   0   0   0   0   0   0   0   0   0   0   0   0   0   0   7   0   6   1 102
  10   0   0   0   6   0   0   0   0   0   0   0   0   0   0   5   0   0   0   0   0   0   0   0   0   6   0   0   0   0   0   1 102
   1   0   0   0   0   0   0   0   6   0   0   0   0   0   0   0   0   4   6   0   0   0   6   0   0   0   0   0   0   0   0   1 102
  10   0   0   5   0   0   9   0   0   0   0   0   0   0   0   0   0   0   0   0   0   0   0   0   0   0   0   0   0   3   0   1 102
   7   0   0   0   0   0   0   0   0   0   0   0   0   0   0   0   0   0   0   0   0   0   0   9   0   0   0   0   0   0   0   1 102
  10   0   0   8   5   0   0   0   0   0   0   0   0   0   0   0   0   0   0   0   0   0   6   0   6   0   0   7   0   7   0   1 102
   6   0   0   0   0   0   0   0   0   0   0   0   0   0   0   0   4   0   0   0  10   0   0   0   0   0   0   0   0   0   0   1 102
   1   0   8   0   0   0   0   0   0   0   0   0   7   0   0   0   0   0   0   0   0   0   0   0   0   0   5   0   0   0   7   1 102
   3   0   0   0   0   0   0   5   0   0   0   3   0   0   0   0   5   0   0   0   6   0   0   0   8   0   0   0   0   0   0   1 102
   3   0   0   0   0   3   0   0   0   0   0   0   0   0   0   0   0   0   7   0   3   0  10   9   0   0   0   6   0   0   0   1 102
  10   0   4   0   0   0   0   0   7   0   0   0   0   4   6   0   9   0   0   0   0   0   0   0   0   0   0   0   0   0   0   1 102
   5   0   6   0   0   8   3   0   0   0   0   5   0   0   0   0   0   0   6   0   0   0   0   0   0   0   0   0   0   0   0   1 102
   2   0   0   4   0   0   0   0   0   0   0   0   0   0   0   0   0   0   4   6   3   0   0   0   0   0   0   0   0   0   0   1 102
   5   4   0   0   0   0   0   0   0   0   7   0   0   0   0  10   0   0   0   0  10   0   0   0   0   0   5   0   0   0   0   1 102
   1   0   0   0   0   0   0   0   0   0   0   0   0   0   9   0   0  10   6   0   0   0   0   0   0   4   0   0   0   0   0   1 102
   1   0   0   0   0   0   0   0   0   0   7   0   0   0   0   0   0  10   0   0   0   0   0   6   0   0   0   0   0   0   0   1 102
  10   0   6   0   0   0   5   0   0   0   0   4   0   0   0   0   0   0   0  10   0   0   0   5   3   0   0   0   0   0   6   1 102
   8   6   7   0   0   0   0   0   0   0   0   0   0   0   0   0   0   0   0   0   0   0   0   0   0   0   0   9   0   0   0   1 102
   4   7   0   0   0   0   0   0   0   0   0   0   0   0   8   0   0   0   0   0   8   5   0   0   0   0   0   0   0   0   0   1 102
   8   0   0   0   7   0   0   0   0   0   0   0   0   0   0   0   0   0  10   0   0   0   0   0   0   0   0   0   0   0   0   1 102
   0   0   0   0   0   0   0   0   0   0   0   0   0   0   0   0   0   0   0   0   0   0   0   0   0   0   0   0   0   0   0   0 
